c This is QMaxSAT 2017 based on 14.07
c This is Glucose 3.0
c This is MiniSat 2.2.0
c WARNING: for repeatability, setting FPU to use double precision
c card = mrwto, comp = 0, pmodel = 0, narr = 8, mct = 29, verb = 0
cr firstCPXsol 0 0 0
c top = 167313
c |  Number of variables:    2592                                             |
c |  Number of clauses:      76134                                            |
c |  Weight of hard clauses: 167313                                           |
c |  Number of soft clauses: 9632                                             |
c |  Number of unit soft clauses: 0                                           |
c |  Maximum Cardinality (by unit): 1893456      (0           )               |
c last restart ## conflicts  :  0 268 
o 1056 | cpuTime 0.020288 s
c Sum of weights = 236682
c A number of soft clauses remained = 1204
c MRWTO encoding for Pseudo-Boolean Constraints
c sizeMax=1056
c No.0 Divisor=11	generated by pow1
c No.1 Divisor=11	generated by pow1
c No.2 Divisor=11	generated by pow1
c p0= 11	p1= 11	p2= 11	
c number of digits = 4
c linkingVar[0].size = 11, linkingVar[1].size = 11, linkingVar[2].size = 9, linkingVar[3].size = 1, 
c Pseudo-Boolean Constraints: 25756 variables and 224834 clauses
c Sum of weights = 236682
c A number of soft clauses remained = 1204
c MRWTO encoding for Pseudo-Boolean Constraints
c sizeMax=1056
c No.0 Divisor=11	generated by pow1
c No.1 Divisor=11	generated by pow1
c No.2 Divisor=11	generated by pow1
c p0= 11	p1= 11	p2= 11	
c number of digits = 4
c linkingVar[0].size = 11, linkingVar[1].size = 11, linkingVar[2].size = 9, linkingVar[3].size = 1, 
c Pseudo-Boolean Constraints: 25756 variables and 224834 clauses
c Sum of weights = 236682
c A number of soft clauses remained = 1204
c MRWTO encoding for Pseudo-Boolean Constraints
c sizeMax=1056
c No.0 Divisor=11	generated by pow1
c No.1 Divisor=11	generated by pow1
c No.2 Divisor=11	generated by pow1
c p0= 11	p1= 11	p2= 11	
c number of digits = 4
c linkingVar[0].size = 11, linkingVar[1].size = 11, linkingVar[2].size = 9, linkingVar[3].size = 1, 
c Pseudo-Boolean Constraints: 25756 variables and 224834 clauses
c Sum of weights = 236682
c A number of soft clauses remained = 1204
c MRWTO encoding for Pseudo-Boolean Constraints
c sizeMax=1056
c No.0 Divisor=11	generated by pow1
c No.1 Divisor=11	generated by pow1
c No.2 Divisor=11	generated by pow1
c p0= 11	p1= 11	p2= 11	
c number of digits = 4
c linkingVar[0].size = 11, linkingVar[1].size = 11, linkingVar[2].size = 9, linkingVar[3].size = 1, 
c Pseudo-Boolean Constraints: 25756 variables and 224834 clauses
c Sum of weights = 236682
c A number of soft clauses remained = 1204
c MRWTO encoding for Pseudo-Boolean Constraints
c sizeMax=1056
c No.0 Divisor=11	generated by pow1
c No.1 Divisor=11	generated by pow1
c No.2 Divisor=11	generated by pow1
c p0= 11	p1= 11	p2= 11	
c number of digits = 4
c linkingVar[0].size = 11, linkingVar[1].size = 11, linkingVar[2].size = 9, linkingVar[3].size = 1, 
c Pseudo-Boolean Constraints: 25756 variables and 224834 clauses
c Sum of weights = 236682
c A number of soft clauses remained = 1204
c MRWTO encoding for Pseudo-Boolean Constraints
c sizeMax=1056
c No.0 Divisor=11	generated by pow1
c No.1 Divisor=11	generated by pow1
c No.2 Divisor=11	generated by pow1
c p0= 11	p1= 11	p2= 11	
c number of digits = 4
c linkingVar[0].size = 11, linkingVar[1].size = 11, linkingVar[2].size = 9, linkingVar[3].size = 1, 
c Pseudo-Boolean Constraints: 25756 variables and 224834 clauses
c Sum of weights = 236682
c A number of soft clauses remained = 1204
c MRWTO encoding for Pseudo-Boolean Constraints
c sizeMax=1056
c No.0 Divisor=11	generated by pow1
c No.1 Divisor=11	generated by pow1
c No.2 Divisor=11	generated by pow1
c p0= 11	p1= 11	p2= 11	
c number of digits = 4
c linkingVar[0].size = 11, linkingVar[1].size = 11, linkingVar[2].size = 9, linkingVar[3].size = 1, 
c Pseudo-Boolean Constraints: 25756 variables and 224834 clauses
c Sum of weights = 236682
c A number of soft clauses remained = 1204
c MRWTO encoding for Pseudo-Boolean Constraints
c sizeMax=1056
c No.0 Divisor=11	generated by pow1
c No.1 Divisor=11	generated by pow1
c No.2 Divisor=11	generated by pow1
c p0= 11	p1= 11	p2= 11	
c number of digits = 4
c linkingVar[0].size = 11, linkingVar[1].size = 11, linkingVar[2].size = 9, linkingVar[3].size = 1, 
c Pseudo-Boolean Constraints: 25756 variables and 224834 clauses
c last restart ## conflicts  :  204 3024 
o 1001 | cpuTime 4.31365 s
c last restart ## conflicts  :  477 3207 
o 978 | cpuTime 9.74195 s
c last restart ## conflicts  :  26 4088 
o 946 | cpuTime 15.2166 s
c last restart ## conflicts  :  293 2035 
o 900 | cpuTime 19.4743 s
c last restart ## conflicts  :  681 3451 
o 849 | cpuTime 27.1837 s
c last restart ## conflicts  :  164 3745 
o 832 | cpuTime 165.22 s
c last restart ## conflicts  :  165 3307 
o 790 | cpuTime 374.796 s
c last restart ## conflicts  :  223 8219 
o 766 | cpuTime 884.106 s
s UNKNOWN
c Search is stopped by a limit (maybe time-limit)
cr positiVarArr: [ | 10(1->3) | 45(1->2) | 99(1->20) | 133(1->18) | 160(1->9) | 211(1->24) | 249(1->26) | 280(1->21) | 299(2->4) | 360(3->29) | 382(4->15) | 409(5->6) | 433(6->1) | 473(7->1) | 538(8->27) | 563(9->16) | 578(10->1) | 619(11->1) | 665(12->10) | 688(13->1) | 728(14->1) | 788(15->25) | 807(16->8) | 857(17->22) | 882(18->11) | 920(19->13) | 960(20->17) | 991(21->12) | 1029(22->14) | 1058(23->7) | 1110(24->23) | 1142(25->19) | 1155(26->1) | 1223(27->28) | 1230(28->1) | 1272(29->5) | ]
cr the 1-th chain: [ 1->3->29->5->6->1 ] (#non-depot=4) {#cumul.=5}
cr the 2-th chain: [ 1->2->4->15->25->19->13->1 ] (#non-depot=6) {#cumul.=11}
cr the 3-th chain: [ 1->20->17->22->14->1 ] (#non-depot=4) {#cumul.=15}
cr the 4-th chain: [ 1->18->11->1 ] (#non-depot=2) {#cumul.=17}
cr the 5-th chain: [ 1->9->16->8->27->28->1 ] (#non-depot=5) {#cumul.=22}
cr the 6-th chain: [ 1->24->23->7->1 ] (#non-depot=3) {#cumul.=25}
cr the 7-th chain: [ 1->26->1 ] (#non-depot=1) {#cumul.=26}
cr the 8-th chain: [ 1->21->12->10->1 ] (#non-depot=3) {#cumul.=29}
c Latest Answer = 0 by 9 loops
c restarts              : 44048
c conflicts             : 18563304       (5163 /sec)
c decisions             : 60298079       (0.00 % random) (16769 /sec)
c propagations          : 28467070888    (7916892 /sec)
c conflict literals     : 1258499983     (42.71 % deleted)
c Memory used           : 545.00 MB
c CPU time              : 3595.74 s
